data;
param n := 79;
param m := 2;
param nu := 10;
param x : 1 2:=

1 5.1 3.5
2 4.9 3.0
3 4.7 3.2
4 4.6 3.1
5 5.0 3.6
6 5.4 3.9
7 5.0 3.4
8 4.4 2.9
9 5.4 3.7
10 4.8 3.4
11 4.8 3.0
12 5.8 4.0
13 5.4 3.9
14 5.1 3.5
15 5.7 3.8
16 5.1 3.8
17 5.4 3.4
18 5.1 3.7
19 4.6 3.6
20 5.1 3.3
21 4.8 3.4
22 5.0 3.0
23 5.2 3.4
24 4.7 3.2
25 4.8 3.1
26 5.2 4.1
27 5.5 4.2
28 4.9 3.1
29 5.0 3.2
30 5.5 3.5
31 4.4 3.0
32 5.1 3.4
33 5.0 3.5
34 4.8 3.0
35 5.1 3.8
36 4.6 3.2
37 5.3 3.7
38 5.0 3.3
39 7.0 3.2
40 6.4 3.2
41 5.5 2.3
42 6.5 2.8
43 5.7 2.8
44 6.3 3.3
45 4.9 2.4
46 6.6 2.9
47 5.2 2.7
48 5.0 2.0
49 6.0 2.2
50 6.1 2.9
51 6.7 3.1
52 5.6 3.0
53 5.8 2.7
54 6.2 2.2
55 5.6 2.5
56 5.9 3.2
57 6.1 2.8
58 6.3 2.5
59 6.1 2.8
60 6.4 2.9
61 6.8 2.8
62 6.7 3.0
63 6.0 2.9
64 5.7 2.6
65 5.5 2.4
66 5.5 2.4
67 5.8 2.7
68 6.0 2.7
69 6.7 3.1
70 6.3 2.3
71 5.6 3.0
72 5.5 2.5
73 5.5 2.6
74 6.1 3.0
75 5.8 2.6
76 5.0 2.3
77 5.7 3.0
78 5.1 2.5
79 5.7 2.8;
param y:=

1 1
2 1
3 1
4 1
5 1
6 1
7 1
8 1
9 1
10 1
11 1
12 1
13 1
14 1
15 1
16 1
17 1
18 1
19 1
20 1
21 1
22 1
23 1
24 1
25 1
26 1
27 1
28 1
29 1
30 1
31 1
32 1
33 1
34 1
35 1
36 1
37 1
38 1
39 -1
40 -1
41 -1
42 -1
43 -1
44 -1
45 -1
46 -1
47 -1
48 -1
49 -1
50 -1
51 -1
52 -1
53 -1
54 -1
55 -1
56 -1
57 -1
58 -1
59 -1
60 -1
61 -1
62 -1
63 -1
64 -1
65 -1
66 -1
67 -1
68 -1
69 -1
70 -1
71 -1
72 -1
73 -1
74 -1
75 -1
76 -1
77 -1
78 -1
79 -1;
